c ind 13 15 17 19 26 3 4 6 7 0
p cnf 36 104
-1 -2 5 0
-1 2 8 0
-10 11 0
-10 16 0
-11 12 0
-11 14 0
-12 -13 7 0
-12 -7 13 0
-14 -15 7 0
-14 -7 15 0
-16 -17 7 0
-16 -7 17 0
-18 -19 7 0
-18 -7 19 0
-2 -3 4 0
-2 -4 3 0
-20 -21 25 0
-20 21 27 0
-21 18 0
-21 22 0
-22 16 0
-22 23 0
-23 14 0
-23 24 0
-24 -13 4 0
-24 -4 13 0
-25 -26 6 0
-25 -6 26 0
-27 -28 25 0
-27 28 32 0
-28 18 0
-28 29 0
-29 16 0
-29 30 0
-30 12 0
-30 31 0
-31 -15 4 0
-31 -4 15 0
-32 -33 36 0
-32 33 25 0
-33 18 0
-33 34 0
-34 16 0
-34 35 0
-35 24 0
-35 31 0
-36 -4 6 0
-36 -6 4 0
-5 -6 7 0
-5 -7 6 0
-7 0
-8 -9 5 0
-8 9 20 0
-9 10 0
-9 18 0
1 -2 -5 0
1 -5 -8 0
1 0
1 2 -8 0
10 -11 -16 0
11 -12 -14 0
12 -13 -7 0
12 13 7 0
14 -15 -7 0
14 15 7 0
16 -17 -7 0
16 17 7 0
18 -19 -7 0
18 19 7 0
2 -3 -4 0
2 3 4 0
20 -21 -25 0
20 -25 -27 0
20 21 -27 0
21 -22 -18 0
22 -23 -16 0
23 -24 -14 0
24 -13 -4 0
24 13 4 0
25 -6 -26 0
25 6 26 0
27 -25 -32 0
27 -28 -25 0
27 28 -32 0
28 -29 -18 0
29 -30 -16 0
30 -12 -31 0
31 -15 -4 0
31 15 4 0
32 -33 -36 0
32 -36 -25 0
32 33 -25 0
33 -34 -18 0
34 -35 -16 0
35 -24 -31 0
36 -6 -4 0
36 6 4 0
4 0
5 -6 -7 0
5 6 7 0
8 -5 -20 0
8 -9 -5 0
8 9 -20 0
9 -10 -18 0
